c This is an instance of the exact track of PACE 2020 Challenge, see https://pacechallenge.org/2020/ 
c TYPE: biology 
c ORIGIN: https://thebiogrid.org/ 
c DESCRIPTION: This is a gene-interaction network of Toxoplasma gondii, the most prevalent parasite in developed countries. 
p tdp 75 118
23 51
23 41
23 35
23 44
23 10
23 38
23 28
23 37
23 50
23 40
23 49
23 34
23 47
23 52
23 33
23 31
23 36
23 43
23 48
23 46
23 11
23 32
23 45
23 30
23 7
23 39
23 29
23 42
24 30
24 55
24 10
24 62
24 49
24 36
24 59
24 33
24 31
24 56
24 28
24 53
24 63
24 60
24 34
24 57
24 29
24 54
24 11
24 38
24 61
24 13
24 35
24 58
24 32
1 17
1 6
1 11
1 12
1 21
1 15
1 16
1 5
1 10
1 19
1 3
1 20
1 14
1 4
1 9
1 18
1 7
1 2
1 13
1 22
1 8
17 22
17 4
17 21
22 68
22 2
22 75
22 65
22 66
22 69
22 72
22 70
22 67
22 27
22 73
22 71
22 74
22 64
22 6
2 4
2 21
6 4
6 21
11 4
4 19
4 10
4 5
4 16
4 15
4 21
4 12
4 8
4 13
4 3
4 7
4 18
4 9
4 14
4 20
5 21
8 21
21 27
21 3
21 26
21 25
